120
[24,25,26,27,28,29,30,31,32,33,34,35,36,37,38,39,40,41,42,43,44,45,46,47,48,49,50,51,52,53,54,55,56,57,58,59,60,61,62,63,64,65,66,67,68,69,70,71,72,73,74,75,76,77,78,79,80,81,82,83,84]
[10,6,9,4,6,5,7,10,10,6,8,8,7,5,11,7,11,9,10,10,8,6,13,8,18,5,6,3,6,8,11,9,4,11,12,13,6,10,7,10,11,8,9,3,12,8,7,10,5,5,4,10,10,12,3,9,9,8,7,10,7]
